; benchmark generated from python API
(set-info :status unknown)
(declare-fun cell_1_3 () Int)
(declare-fun cell_1_6 () Int)
(declare-fun cell_2_6 () Int)
(declare-fun cell_2_8 () Int)
(declare-fun cell_3_3 () Int)
(declare-fun cell_3_9 () Int)
(declare-fun cell_4_4 () Int)
(declare-fun cell_4_5 () Int)
(declare-fun cell_5_1 () Int)
(declare-fun cell_5_8 () Int)
(declare-fun cell_6_1 () Int)
(declare-fun cell_6_9 () Int)
(declare-fun cell_7_2 () Int)
(declare-fun cell_7_4 () Int)
(declare-fun cell_8_2 () Int)
(declare-fun cell_8_7 () Int)
(declare-fun cell_9_7 () Int)
(declare-fun cell_1_1 () Int)
(declare-fun cell_2_1 () Int)
(declare-fun cell_3_1 () Int)
(declare-fun cell_4_1 () Int)
(declare-fun cell_7_1 () Int)
(declare-fun cell_8_1 () Int)
(declare-fun cell_9_1 () Int)
(declare-fun cell_1_2 () Int)
(declare-fun cell_2_2 () Int)
(declare-fun cell_3_2 () Int)
(declare-fun cell_4_2 () Int)
(declare-fun cell_5_2 () Int)
(declare-fun cell_6_2 () Int)
(declare-fun cell_9_2 () Int)
(declare-fun cell_2_3 () Int)
(declare-fun cell_4_3 () Int)
(declare-fun cell_5_3 () Int)
(declare-fun cell_6_3 () Int)
(declare-fun cell_7_3 () Int)
(declare-fun cell_8_3 () Int)
(declare-fun cell_9_3 () Int)
(declare-fun cell_1_4 () Int)
(declare-fun cell_2_4 () Int)
(declare-fun cell_3_4 () Int)
(declare-fun cell_5_4 () Int)
(declare-fun cell_6_4 () Int)
(declare-fun cell_8_4 () Int)
(declare-fun cell_9_4 () Int)
(declare-fun cell_1_5 () Int)
(declare-fun cell_2_5 () Int)
(declare-fun cell_3_5 () Int)
(declare-fun cell_5_5 () Int)
(declare-fun cell_6_5 () Int)
(declare-fun cell_7_5 () Int)
(declare-fun cell_8_5 () Int)
(declare-fun cell_9_5 () Int)
(declare-fun cell_3_6 () Int)
(declare-fun cell_4_6 () Int)
(declare-fun cell_5_6 () Int)
(declare-fun cell_6_6 () Int)
(declare-fun cell_7_6 () Int)
(declare-fun cell_8_6 () Int)
(declare-fun cell_9_6 () Int)
(declare-fun cell_1_7 () Int)
(declare-fun cell_2_7 () Int)
(declare-fun cell_3_7 () Int)
(declare-fun cell_4_7 () Int)
(declare-fun cell_5_7 () Int)
(declare-fun cell_6_7 () Int)
(declare-fun cell_7_7 () Int)
(declare-fun cell_1_8 () Int)
(declare-fun cell_3_8 () Int)
(declare-fun cell_4_8 () Int)
(declare-fun cell_6_8 () Int)
(declare-fun cell_7_8 () Int)
(declare-fun cell_8_8 () Int)
(declare-fun cell_9_8 () Int)
(declare-fun cell_1_9 () Int)
(declare-fun cell_2_9 () Int)
(declare-fun cell_4_9 () Int)
(declare-fun cell_5_9 () Int)
(declare-fun cell_7_9 () Int)
(declare-fun cell_8_9 () Int)
(declare-fun cell_9_9 () Int)
(assert
 (= cell_1_3 1))
(assert
 (= cell_1_6 2))
(assert
 (= cell_2_6 1))
(assert
 (= cell_2_8 2))
(assert
 (= cell_3_3 2))
(assert
 (= cell_3_9 1))
(assert
 (= cell_4_4 2))
(assert
 (= cell_4_5 1))
(assert
 (= cell_5_1 2))
(assert
 (= cell_5_8 1))
(assert
 (= cell_6_1 1))
(assert
 (= cell_6_9 2))
(assert
 (= cell_7_2 2))
(assert
 (= cell_7_4 1))
(assert
 (= cell_8_2 1))
(assert
 (= cell_8_7 2))
(assert
 (= cell_9_7 1))
(assert
 (let (($x2656 (= cell_1_1 9)))
 (let (($x2875 (= cell_1_1 8)))
 (let (($x2508 (= cell_1_1 7)))
 (let (($x1328 (= cell_1_1 6)))
 (let (($x2164 (= cell_1_1 5)))
 (let (($x2894 (= cell_1_1 4)))
 (let (($x1593 (= cell_1_1 3)))
 (let (($x1563 (= cell_1_1 2)))
 (let (($x645 (= cell_1_1 1)))
 (or $x645 $x1563 $x1593 $x2894 $x2164 $x1328 $x2508 $x2875 $x2656)))))))))))
(assert
 (let (($x1894 (= cell_2_1 9)))
 (let (($x970 (= cell_2_1 8)))
 (let (($x2416 (= cell_2_1 7)))
 (let (($x450 (= cell_2_1 6)))
 (let (($x2441 (= cell_2_1 5)))
 (let (($x2903 (= cell_2_1 4)))
 (let (($x226 (= cell_2_1 3)))
 (let (($x1169 (= cell_2_1 2)))
 (let (($x990 (= cell_2_1 1)))
 (or $x990 $x1169 $x226 $x2903 $x2441 $x450 $x2416 $x970 $x1894)))))))))))
(assert
 (let (($x3035 (= cell_3_1 9)))
 (let (($x1384 (= cell_3_1 8)))
 (let (($x491 (= cell_3_1 7)))
 (let (($x2634 (= cell_3_1 6)))
 (let (($x2035 (= cell_3_1 5)))
 (let (($x2666 (= cell_3_1 4)))
 (let (($x209 (= cell_3_1 3)))
 (let (($x1718 (= cell_3_1 2)))
 (let (($x200 (= cell_3_1 1)))
 (or $x200 $x1718 $x209 $x2666 $x2035 $x2634 $x491 $x1384 $x3035)))))))))))
(assert
 (let (($x3325 (= cell_4_1 9)))
 (let (($x2778 (= cell_4_1 8)))
 (let (($x2562 (= cell_4_1 7)))
 (let (($x806 (= cell_4_1 6)))
 (let (($x840 (= cell_4_1 5)))
 (let (($x180 (= cell_4_1 4)))
 (let (($x1665 (= cell_4_1 3)))
 (let (($x3627 (= cell_4_1 2)))
 (let (($x1491 (= cell_4_1 1)))
 (or $x1491 $x3627 $x1665 $x180 $x840 $x806 $x2562 $x2778 $x3325)))))))))))
(assert
 (let (($x977 (= cell_5_1 2)))
 (or (= cell_5_1 1) $x977 (= cell_5_1 3) (= cell_5_1 4) (= cell_5_1 5) (= cell_5_1 6) (= cell_5_1 7) (= cell_5_1 8) (= cell_5_1 9))))
(assert
 (let (($x2461 (= cell_6_1 1)))
 (or $x2461 (= cell_6_1 2) (= cell_6_1 3) (= cell_6_1 4) (= cell_6_1 5) (= cell_6_1 6) (= cell_6_1 7) (= cell_6_1 8) (= cell_6_1 9))))
(assert
 (let (($x2935 (= cell_7_1 9)))
 (let (($x1076 (= cell_7_1 8)))
 (let (($x1953 (= cell_7_1 7)))
 (let (($x2280 (= cell_7_1 6)))
 (let (($x1866 (= cell_7_1 5)))
 (let (($x1798 (= cell_7_1 4)))
 (let (($x2987 (= cell_7_1 3)))
 (let (($x1820 (= cell_7_1 2)))
 (let (($x1123 (= cell_7_1 1)))
 (or $x1123 $x1820 $x2987 $x1798 $x1866 $x2280 $x1953 $x1076 $x2935)))))))))))
(assert
 (let (($x3724 (= cell_8_1 9)))
 (let (($x2865 (= cell_8_1 8)))
 (let (($x299 (= cell_8_1 7)))
 (let (($x3079 (= cell_8_1 6)))
 (let (($x586 (= cell_8_1 5)))
 (let (($x1014 (= cell_8_1 4)))
 (let (($x1773 (= cell_8_1 3)))
 (let (($x716 (= cell_8_1 2)))
 (let (($x1136 (= cell_8_1 1)))
 (or $x1136 $x716 $x1773 $x1014 $x586 $x3079 $x299 $x2865 $x3724)))))))))))
(assert
 (let (($x2716 (= cell_9_1 9)))
 (let (($x3216 (= cell_9_1 8)))
 (let (($x2187 (= cell_9_1 7)))
 (let (($x99 (= cell_9_1 6)))
 (let (($x89 (= cell_9_1 5)))
 (let (($x24 (= cell_9_1 4)))
 (let (($x264 (= cell_9_1 3)))
 (let (($x2546 (= cell_9_1 2)))
 (let (($x651 (= cell_9_1 1)))
 (or $x651 $x2546 $x264 $x24 $x89 $x99 $x2187 $x3216 $x2716)))))))))))
(assert
 (let (($x133 (= cell_1_2 9)))
 (let (($x1463 (= cell_1_2 8)))
 (let (($x2500 (= cell_1_2 7)))
 (let (($x3350 (= cell_1_2 6)))
 (let (($x3257 (= cell_1_2 5)))
 (let (($x927 (= cell_1_2 4)))
 (let (($x3766 (= cell_1_2 3)))
 (let (($x1674 (= cell_1_2 2)))
 (let (($x3225 (= cell_1_2 1)))
 (or $x3225 $x1674 $x3766 $x927 $x3257 $x3350 $x2500 $x1463 $x133)))))))))))
(assert
 (let (($x2065 (= cell_2_2 9)))
 (let (($x919 (= cell_2_2 8)))
 (let (($x375 (= cell_2_2 7)))
 (let (($x2123 (= cell_2_2 6)))
 (let (($x446 (= cell_2_2 5)))
 (let (($x618 (= cell_2_2 4)))
 (let (($x1753 (= cell_2_2 3)))
 (let (($x1559 (= cell_2_2 2)))
 (let (($x2583 (= cell_2_2 1)))
 (or $x2583 $x1559 $x1753 $x618 $x446 $x2123 $x375 $x919 $x2065)))))))))))
(assert
 (let (($x1485 (= cell_3_2 9)))
 (let (($x1383 (= cell_3_2 8)))
 (let (($x511 (= cell_3_2 7)))
 (let (($x1929 (= cell_3_2 6)))
 (let (($x2813 (= cell_3_2 5)))
 (let (($x862 (= cell_3_2 4)))
 (let (($x2804 (= cell_3_2 3)))
 (let (($x3215 (= cell_3_2 2)))
 (let (($x340 (= cell_3_2 1)))
 (or $x340 $x3215 $x2804 $x862 $x2813 $x1929 $x511 $x1383 $x1485)))))))))))
(assert
 (let (($x1740 (= cell_4_2 9)))
 (let (($x2125 (= cell_4_2 8)))
 (let (($x1810 (= cell_4_2 7)))
 (let (($x3271 (= cell_4_2 6)))
 (let (($x1414 (= cell_4_2 5)))
 (let (($x533 (= cell_4_2 4)))
 (let (($x1184 (= cell_4_2 3)))
 (let (($x1392 (= cell_4_2 2)))
 (let (($x1828 (= cell_4_2 1)))
 (or $x1828 $x1392 $x1184 $x533 $x1414 $x3271 $x1810 $x2125 $x1740)))))))))))
(assert
 (let (($x1435 (= cell_5_2 9)))
 (let (($x743 (= cell_5_2 8)))
 (let (($x1642 (= cell_5_2 7)))
 (let (($x1585 (= cell_5_2 6)))
 (let (($x2548 (= cell_5_2 5)))
 (let (($x2767 (= cell_5_2 4)))
 (let (($x3369 (= cell_5_2 3)))
 (let (($x757 (= cell_5_2 2)))
 (let (($x1543 (= cell_5_2 1)))
 (or $x1543 $x757 $x3369 $x2767 $x2548 $x1585 $x1642 $x743 $x1435)))))))))))
(assert
 (let (($x3499 (= cell_6_2 9)))
 (let (($x78 (= cell_6_2 8)))
 (let (($x2250 (= cell_6_2 7)))
 (let (($x2636 (= cell_6_2 6)))
 (let (($x752 (= cell_6_2 5)))
 (let (($x1722 (= cell_6_2 4)))
 (let (($x1906 (= cell_6_2 3)))
 (let (($x254 (= cell_6_2 2)))
 (let (($x221 (= cell_6_2 1)))
 (or $x221 $x254 $x1906 $x1722 $x752 $x2636 $x2250 $x78 $x3499)))))))))))
(assert
 (let (($x1911 (= cell_7_2 2)))
 (or (= cell_7_2 1) $x1911 (= cell_7_2 3) (= cell_7_2 4) (= cell_7_2 5) (= cell_7_2 6) (= cell_7_2 7) (= cell_7_2 8) (= cell_7_2 9))))
(assert
 (let (($x2112 (= cell_8_2 1)))
 (or $x2112 (= cell_8_2 2) (= cell_8_2 3) (= cell_8_2 4) (= cell_8_2 5) (= cell_8_2 6) (= cell_8_2 7) (= cell_8_2 8) (= cell_8_2 9))))
(assert
 (let (($x3730 (= cell_9_2 9)))
 (let (($x708 (= cell_9_2 8)))
 (let (($x1335 (= cell_9_2 7)))
 (let (($x531 (= cell_9_2 6)))
 (let (($x3713 (= cell_9_2 5)))
 (let (($x1072 (= cell_9_2 4)))
 (let (($x753 (= cell_9_2 3)))
 (let (($x2111 (= cell_9_2 2)))
 (let (($x1021 (= cell_9_2 1)))
 (or $x1021 $x2111 $x753 $x1072 $x3713 $x531 $x1335 $x708 $x3730)))))))))))
(assert
 (let (($x583 (= cell_1_3 1)))
 (or $x583 (= cell_1_3 2) (= cell_1_3 3) (= cell_1_3 4) (= cell_1_3 5) (= cell_1_3 6) (= cell_1_3 7) (= cell_1_3 8) (= cell_1_3 9))))
(assert
 (let (($x1158 (= cell_2_3 9)))
 (let (($x814 (= cell_2_3 8)))
 (let (($x15 (= cell_2_3 7)))
 (let (($x2652 (= cell_2_3 6)))
 (let (($x2081 (= cell_2_3 5)))
 (let (($x1302 (= cell_2_3 4)))
 (let (($x2099 (= cell_2_3 3)))
 (let (($x652 (= cell_2_3 2)))
 (let (($x1034 (= cell_2_3 1)))
 (or $x1034 $x652 $x2099 $x1302 $x2081 $x2652 $x15 $x814 $x1158)))))))))))
(assert
 (let (($x1950 (= cell_3_3 2)))
 (or (= cell_3_3 1) $x1950 (= cell_3_3 3) (= cell_3_3 4) (= cell_3_3 5) (= cell_3_3 6) (= cell_3_3 7) (= cell_3_3 8) (= cell_3_3 9))))
(assert
 (let (($x1517 (= cell_4_3 9)))
 (let (($x816 (= cell_4_3 8)))
 (let (($x1000 (= cell_4_3 7)))
 (let (($x2038 (= cell_4_3 6)))
 (let (($x1042 (= cell_4_3 5)))
 (let (($x768 (= cell_4_3 4)))
 (let (($x2472 (= cell_4_3 3)))
 (let (($x53 (= cell_4_3 2)))
 (let (($x2553 (= cell_4_3 1)))
 (or $x2553 $x53 $x2472 $x768 $x1042 $x2038 $x1000 $x816 $x1517)))))))))))
(assert
 (let (($x2306 (= cell_5_3 9)))
 (let (($x1756 (= cell_5_3 8)))
 (let (($x599 (= cell_5_3 7)))
 (let (($x2895 (= cell_5_3 6)))
 (let (($x151 (= cell_5_3 5)))
 (let (($x2945 (= cell_5_3 4)))
 (let (($x808 (= cell_5_3 3)))
 (let (($x3451 (= cell_5_3 2)))
 (let (($x956 (= cell_5_3 1)))
 (or $x956 $x3451 $x808 $x2945 $x151 $x2895 $x599 $x1756 $x2306)))))))))))
(assert
 (let (($x338 (= cell_6_3 9)))
 (let (($x2589 (= cell_6_3 8)))
 (let (($x3814 (= cell_6_3 7)))
 (let (($x1077 (= cell_6_3 6)))
 (let (($x2342 (= cell_6_3 5)))
 (let (($x3435 (= cell_6_3 4)))
 (let (($x486 (= cell_6_3 3)))
 (let (($x3219 (= cell_6_3 2)))
 (let (($x2132 (= cell_6_3 1)))
 (or $x2132 $x3219 $x486 $x3435 $x2342 $x1077 $x3814 $x2589 $x338)))))))))))
(assert
 (let (($x21 (= cell_7_3 9)))
 (let (($x3072 (= cell_7_3 8)))
 (let (($x3616 (= cell_7_3 7)))
 (let (($x2488 (= cell_7_3 6)))
 (let (($x3777 (= cell_7_3 5)))
 (let (($x3575 (= cell_7_3 4)))
 (let (($x610 (= cell_7_3 3)))
 (let (($x798 (= cell_7_3 2)))
 (let (($x313 (= cell_7_3 1)))
 (or $x313 $x798 $x610 $x3575 $x3777 $x2488 $x3616 $x3072 $x21)))))))))))
(assert
 (let (($x1639 (= cell_8_3 9)))
 (let (($x2349 (= cell_8_3 8)))
 (let (($x896 (= cell_8_3 7)))
 (let (($x3437 (= cell_8_3 6)))
 (let (($x58 (= cell_8_3 5)))
 (let (($x3833 (= cell_8_3 4)))
 (let (($x2600 (= cell_8_3 3)))
 (let (($x2325 (= cell_8_3 2)))
 (let (($x1015 (= cell_8_3 1)))
 (or $x1015 $x2325 $x2600 $x3833 $x58 $x3437 $x896 $x2349 $x1639)))))))))))
(assert
 (let (($x762 (= cell_9_3 9)))
 (let (($x471 (= cell_9_3 8)))
 (let (($x1161 (= cell_9_3 7)))
 (let (($x3695 (= cell_9_3 6)))
 (let (($x2149 (= cell_9_3 5)))
 (let (($x2410 (= cell_9_3 4)))
 (let (($x2229 (= cell_9_3 3)))
 (let (($x1119 (= cell_9_3 2)))
 (let (($x2831 (= cell_9_3 1)))
 (or $x2831 $x1119 $x2229 $x2410 $x2149 $x3695 $x1161 $x471 $x762)))))))))))
(assert
 (let (($x1941 (= cell_1_4 9)))
 (let (($x11 (= cell_1_4 8)))
 (let (($x693 (= cell_1_4 7)))
 (let (($x1795 (= cell_1_4 6)))
 (let (($x3399 (= cell_1_4 5)))
 (let (($x2749 (= cell_1_4 4)))
 (let (($x1095 (= cell_1_4 3)))
 (let (($x772 (= cell_1_4 2)))
 (let (($x781 (= cell_1_4 1)))
 (or $x781 $x772 $x1095 $x2749 $x3399 $x1795 $x693 $x11 $x1941)))))))))))
(assert
 (let (($x3326 (= cell_2_4 9)))
 (let (($x2414 (= cell_2_4 8)))
 (let (($x2575 (= cell_2_4 7)))
 (let (($x1645 (= cell_2_4 6)))
 (let (($x364 (= cell_2_4 5)))
 (let (($x1473 (= cell_2_4 4)))
 (let (($x294 (= cell_2_4 3)))
 (let (($x123 (= cell_2_4 2)))
 (let (($x3542 (= cell_2_4 1)))
 (or $x3542 $x123 $x294 $x1473 $x364 $x1645 $x2575 $x2414 $x3326)))))))))))
(assert
 (let (($x2047 (= cell_3_4 9)))
 (let (($x3280 (= cell_3_4 8)))
 (let (($x1020 (= cell_3_4 7)))
 (let (($x1813 (= cell_3_4 6)))
 (let (($x2380 (= cell_3_4 5)))
 (let (($x1626 (= cell_3_4 4)))
 (let (($x114 (= cell_3_4 3)))
 (let (($x1272 (= cell_3_4 2)))
 (let (($x61 (= cell_3_4 1)))
 (or $x61 $x1272 $x114 $x1626 $x2380 $x1813 $x1020 $x3280 $x2047)))))))))))
(assert
 (let (($x3611 (= cell_4_4 2)))
 (or (= cell_4_4 1) $x3611 (= cell_4_4 3) (= cell_4_4 4) (= cell_4_4 5) (= cell_4_4 6) (= cell_4_4 7) (= cell_4_4 8) (= cell_4_4 9))))
(assert
 (let (($x3783 (= cell_5_4 9)))
 (let (($x1238 (= cell_5_4 8)))
 (let (($x735 (= cell_5_4 7)))
 (let (($x358 (= cell_5_4 6)))
 (let (($x707 (= cell_5_4 5)))
 (let (($x2886 (= cell_5_4 4)))
 (let (($x2739 (= cell_5_4 3)))
 (let (($x2234 (= cell_5_4 2)))
 (let (($x1960 (= cell_5_4 1)))
 (or $x1960 $x2234 $x2739 $x2886 $x707 $x358 $x735 $x1238 $x3783)))))))))))
(assert
 (let (($x1069 (= cell_6_4 9)))
 (let (($x1609 (= cell_6_4 8)))
 (let (($x108 (= cell_6_4 7)))
 (let (($x634 (= cell_6_4 6)))
 (let (($x3698 (= cell_6_4 5)))
 (let (($x1641 (= cell_6_4 4)))
 (let (($x3484 (= cell_6_4 3)))
 (let (($x1108 (= cell_6_4 2)))
 (let (($x395 (= cell_6_4 1)))
 (or $x395 $x1108 $x3484 $x1641 $x3698 $x634 $x108 $x1609 $x1069)))))))))))
(assert
 (let (($x492 (= cell_7_4 1)))
 (or $x492 (= cell_7_4 2) (= cell_7_4 3) (= cell_7_4 4) (= cell_7_4 5) (= cell_7_4 6) (= cell_7_4 7) (= cell_7_4 8) (= cell_7_4 9))))
(assert
 (let (($x1446 (= cell_8_4 9)))
 (let (($x2294 (= cell_8_4 8)))
 (let (($x3589 (= cell_8_4 7)))
 (let (($x222 (= cell_8_4 6)))
 (let (($x2858 (= cell_8_4 5)))
 (let (($x12 (= cell_8_4 4)))
 (let (($x2627 (= cell_8_4 3)))
 (let (($x3557 (= cell_8_4 2)))
 (let (($x2822 (= cell_8_4 1)))
 (or $x2822 $x3557 $x2627 $x12 $x2858 $x222 $x3589 $x2294 $x1446)))))))))))
(assert
 (let (($x1274 (= cell_9_4 9)))
 (let (($x1919 (= cell_9_4 8)))
 (let (($x2445 (= cell_9_4 7)))
 (let (($x1017 (= cell_9_4 6)))
 (let (($x332 (= cell_9_4 5)))
 (let (($x2662 (= cell_9_4 4)))
 (let (($x2743 (= cell_9_4 3)))
 (let (($x3242 (= cell_9_4 2)))
 (let (($x1377 (= cell_9_4 1)))
 (or $x1377 $x3242 $x2743 $x2662 $x332 $x1017 $x2445 $x1919 $x1274)))))))))))
(assert
 (let (($x2704 (= cell_1_5 9)))
 (let (($x2604 (= cell_1_5 8)))
 (let (($x1500 (= cell_1_5 7)))
 (let (($x872 (= cell_1_5 6)))
 (let (($x381 (= cell_1_5 5)))
 (let (($x1327 (= cell_1_5 4)))
 (let (($x3083 (= cell_1_5 3)))
 (let (($x2110 (= cell_1_5 2)))
 (let (($x1669 (= cell_1_5 1)))
 (or $x1669 $x2110 $x3083 $x1327 $x381 $x872 $x1500 $x2604 $x2704)))))))))))
(assert
 (let (($x385 (= cell_2_5 9)))
 (let (($x2049 (= cell_2_5 8)))
 (let (($x2040 (= cell_2_5 7)))
 (let (($x1005 (= cell_2_5 6)))
 (let (($x1204 (= cell_2_5 5)))
 (let (($x1029 (= cell_2_5 4)))
 (let (($x874 (= cell_2_5 3)))
 (let (($x2734 (= cell_2_5 2)))
 (let (($x2871 (= cell_2_5 1)))
 (or $x2871 $x2734 $x874 $x1029 $x1204 $x1005 $x2040 $x2049 $x385)))))))))))
(assert
 (let (($x344 (= cell_3_5 9)))
 (let (($x2209 (= cell_3_5 8)))
 (let (($x1749 (= cell_3_5 7)))
 (let (($x1160 (= cell_3_5 6)))
 (let (($x732 (= cell_3_5 5)))
 (let (($x2315 (= cell_3_5 4)))
 (let (($x1704 (= cell_3_5 3)))
 (let (($x347 (= cell_3_5 2)))
 (let (($x1086 (= cell_3_5 1)))
 (or $x1086 $x347 $x1704 $x2315 $x732 $x1160 $x1749 $x2209 $x344)))))))))))
(assert
 (let (($x292 (= cell_4_5 1)))
 (or $x292 (= cell_4_5 2) (= cell_4_5 3) (= cell_4_5 4) (= cell_4_5 5) (= cell_4_5 6) (= cell_4_5 7) (= cell_4_5 8) (= cell_4_5 9))))
(assert
 (let (($x998 (= cell_5_5 9)))
 (let (($x2177 (= cell_5_5 8)))
 (let (($x1112 (= cell_5_5 7)))
 (let (($x2791 (= cell_5_5 6)))
 (let (($x2412 (= cell_5_5 5)))
 (let (($x1135 (= cell_5_5 4)))
 (let (($x2318 (= cell_5_5 3)))
 (let (($x687 (= cell_5_5 2)))
 (let (($x1355 (= cell_5_5 1)))
 (or $x1355 $x687 $x2318 $x1135 $x2412 $x2791 $x1112 $x2177 $x998)))))))))))
(assert
 (let (($x1699 (= cell_6_5 9)))
 (let (($x1264 (= cell_6_5 8)))
 (let (($x1114 (= cell_6_5 7)))
 (let (($x810 (= cell_6_5 6)))
 (let (($x2053 (= cell_6_5 5)))
 (let (($x3512 (= cell_6_5 4)))
 (let (($x2926 (= cell_6_5 3)))
 (let (($x3202 (= cell_6_5 2)))
 (let (($x2867 (= cell_6_5 1)))
 (or $x2867 $x3202 $x2926 $x3512 $x2053 $x810 $x1114 $x1264 $x1699)))))))))))
(assert
 (let (($x3154 (= cell_7_5 2)))
 (let (($x842 (= cell_7_5 1)))
 (or $x842 $x3154 (= cell_7_5 3) (= cell_7_5 4) (= cell_7_5 5) (= cell_7_5 6) (= cell_7_5 7) (= cell_7_5 8) (= cell_7_5 9)))))
(assert
 (let (($x257 (= cell_8_5 9)))
 (let (($x101 (= cell_8_5 8)))
 (let (($x2941 (= cell_8_5 7)))
 (let (($x1093 (= cell_8_5 6)))
 (let (($x301 (= cell_8_5 5)))
 (let (($x2735 (= cell_8_5 4)))
 (let (($x3507 (= cell_8_5 3)))
 (let (($x439 (= cell_8_5 2)))
 (let (($x2698 (= cell_8_5 1)))
 (or $x2698 $x439 $x3507 $x2735 $x301 $x1093 $x2941 $x101 $x257)))))))))))
(assert
 (let (($x1644 (= cell_9_5 9)))
 (let (($x335 (= cell_9_5 8)))
 (let (($x1317 (= cell_9_5 7)))
 (let (($x1460 (= cell_9_5 6)))
 (let (($x3716 (= cell_9_5 5)))
 (let (($x2960 (= cell_9_5 4)))
 (let (($x2405 (= cell_9_5 3)))
 (let (($x2530 (= cell_9_5 2)))
 (let (($x1227 (= cell_9_5 1)))
 (or $x1227 $x2530 $x2405 $x2960 $x3716 $x1460 $x1317 $x335 $x1644)))))))))))
(assert
 (let (($x494 (= cell_1_6 2)))
 (or (= cell_1_6 1) $x494 (= cell_1_6 3) (= cell_1_6 4) (= cell_1_6 5) (= cell_1_6 6) (= cell_1_6 7) (= cell_1_6 8) (= cell_1_6 9))))
(assert
 (let (($x3541 (= cell_2_6 1)))
 (or $x3541 (= cell_2_6 2) (= cell_2_6 3) (= cell_2_6 4) (= cell_2_6 5) (= cell_2_6 6) (= cell_2_6 7) (= cell_2_6 8) (= cell_2_6 9))))
(assert
 (let (($x3850 (= cell_3_6 9)))
 (let (($x2830 (= cell_3_6 8)))
 (let (($x603 (= cell_3_6 7)))
 (let (($x933 (= cell_3_6 6)))
 (let (($x1972 (= cell_3_6 5)))
 (let (($x3894 (= cell_3_6 4)))
 (let (($x629 (= cell_3_6 3)))
 (let (($x1927 (= cell_3_6 2)))
 (let (($x309 (= cell_3_6 1)))
 (or $x309 $x1927 $x629 $x3894 $x1972 $x933 $x603 $x2830 $x3850)))))))))))
(assert
 (let (($x397 (= cell_4_6 2)))
 (let (($x1178 (= cell_4_6 1)))
 (or $x1178 $x397 (= cell_4_6 3) (= cell_4_6 4) (= cell_4_6 5) (= cell_4_6 6) (= cell_4_6 7) (= cell_4_6 8) (= cell_4_6 9)))))
(assert
 (let (($x1554 (= cell_5_6 9)))
 (let (($x1226 (= cell_5_6 8)))
 (let (($x3226 (= cell_5_6 7)))
 (let (($x318 (= cell_5_6 6)))
 (let (($x1333 (= cell_5_6 5)))
 (let (($x228 (= cell_5_6 4)))
 (let (($x433 (= cell_5_6 3)))
 (let (($x3449 (= cell_5_6 2)))
 (let (($x3702 (= cell_5_6 1)))
 (or $x3702 $x3449 $x433 $x228 $x1333 $x318 $x3226 $x1226 $x1554)))))))))))
(assert
 (let (($x1829 (= cell_6_6 9)))
 (let (($x120 (= cell_6_6 8)))
 (let (($x1497 (= cell_6_6 7)))
 (let (($x361 (= cell_6_6 6)))
 (let (($x1560 (= cell_6_6 5)))
 (let (($x1809 (= cell_6_6 4)))
 (let (($x3055 (= cell_6_6 3)))
 (let (($x3531 (= cell_6_6 2)))
 (let (($x760 (= cell_6_6 1)))
 (or $x760 $x3531 $x3055 $x1809 $x1560 $x361 $x1497 $x120 $x1829)))))))))))
(assert
 (let (($x2102 (= cell_7_6 9)))
 (let (($x1480 (= cell_7_6 8)))
 (let (($x1049 (= cell_7_6 7)))
 (let (($x154 (= cell_7_6 6)))
 (let (($x1052 (= cell_7_6 5)))
 (let (($x2820 (= cell_7_6 4)))
 (let (($x2329 (= cell_7_6 3)))
 (let (($x2750 (= cell_7_6 2)))
 (let (($x1045 (= cell_7_6 1)))
 (or $x1045 $x2750 $x2329 $x2820 $x1052 $x154 $x1049 $x1480 $x2102)))))))))))
(assert
 (let (($x477 (= cell_8_6 9)))
 (let (($x2773 (= cell_8_6 8)))
 (let (($x2940 (= cell_8_6 7)))
 (let (($x2419 (= cell_8_6 6)))
 (let (($x2358 (= cell_8_6 5)))
 (let (($x803 (= cell_8_6 4)))
 (let (($x2274 (= cell_8_6 3)))
 (let (($x2223 (= cell_8_6 2)))
 (let (($x3010 (= cell_8_6 1)))
 (or $x3010 $x2223 $x2274 $x803 $x2358 $x2419 $x2940 $x2773 $x477)))))))))))
(assert
 (let (($x333 (= cell_9_6 9)))
 (let (($x2877 (= cell_9_6 8)))
 (let (($x1850 (= cell_9_6 7)))
 (let (($x2255 (= cell_9_6 6)))
 (let (($x2434 (= cell_9_6 5)))
 (let (($x152 (= cell_9_6 4)))
 (let (($x1434 (= cell_9_6 3)))
 (let (($x546 (= cell_9_6 2)))
 (let (($x3168 (= cell_9_6 1)))
 (or $x3168 $x546 $x1434 $x152 $x2434 $x2255 $x1850 $x2877 $x333)))))))))))
(assert
 (let (($x3574 (= cell_1_7 9)))
 (let (($x932 (= cell_1_7 8)))
 (let (($x1331 (= cell_1_7 7)))
 (let (($x1363 (= cell_1_7 6)))
 (let (($x1323 (= cell_1_7 5)))
 (let (($x1528 (= cell_1_7 4)))
 (let (($x1660 (= cell_1_7 3)))
 (let (($x1876 (= cell_1_7 2)))
 (let (($x1365 (= cell_1_7 1)))
 (or $x1365 $x1876 $x1660 $x1528 $x1323 $x1363 $x1331 $x932 $x3574)))))))))))
(assert
 (let (($x2663 (= cell_2_7 9)))
 (let (($x426 (= cell_2_7 8)))
 (let (($x1066 (= cell_2_7 7)))
 (let (($x1521 (= cell_2_7 6)))
 (let (($x2806 (= cell_2_7 5)))
 (let (($x102 (= cell_2_7 4)))
 (let (($x2805 (= cell_2_7 3)))
 (let (($x1571 (= cell_2_7 2)))
 (let (($x169 (= cell_2_7 1)))
 (or $x169 $x1571 $x2805 $x102 $x2806 $x1521 $x1066 $x426 $x2663)))))))))))
(assert
 (let (($x2228 (= cell_3_7 9)))
 (let (($x2612 (= cell_3_7 8)))
 (let (($x3448 (= cell_3_7 7)))
 (let (($x1452 (= cell_3_7 6)))
 (let (($x297 (= cell_3_7 5)))
 (let (($x242 (= cell_3_7 4)))
 (let (($x2253 (= cell_3_7 3)))
 (let (($x1177 (= cell_3_7 2)))
 (let (($x2152 (= cell_3_7 1)))
 (or $x2152 $x1177 $x2253 $x242 $x297 $x1452 $x3448 $x2612 $x2228)))))))))))
(assert
 (let (($x2124 (= cell_4_7 9)))
 (let (($x2067 (= cell_4_7 8)))
 (let (($x1366 (= cell_4_7 7)))
 (let (($x1812 (= cell_4_7 6)))
 (let (($x2470 (= cell_4_7 5)))
 (let (($x1156 (= cell_4_7 4)))
 (let (($x632 (= cell_4_7 3)))
 (let (($x2588 (= cell_4_7 2)))
 (let (($x1610 (= cell_4_7 1)))
 (or $x1610 $x2588 $x632 $x1156 $x2470 $x1812 $x1366 $x2067 $x2124)))))))))))
(assert
 (let (($x1347 (= cell_5_7 9)))
 (let (($x2171 (= cell_5_7 8)))
 (let (($x3788 (= cell_5_7 7)))
 (let (($x320 (= cell_5_7 6)))
 (let (($x290 (= cell_5_7 5)))
 (let (($x39 (= cell_5_7 4)))
 (let (($x2874 (= cell_5_7 3)))
 (let (($x3434 (= cell_5_7 2)))
 (let (($x3214 (= cell_5_7 1)))
 (or $x3214 $x3434 $x2874 $x39 $x290 $x320 $x3788 $x2171 $x1347)))))))))))
(assert
 (let (($x227 (= cell_6_7 9)))
 (let (($x2640 (= cell_6_7 8)))
 (let (($x2776 (= cell_6_7 7)))
 (let (($x1842 (= cell_6_7 6)))
 (let (($x3522 (= cell_6_7 5)))
 (let (($x815 (= cell_6_7 4)))
 (let (($x1037 (= cell_6_7 3)))
 (let (($x2245 (= cell_6_7 2)))
 (let (($x2648 (= cell_6_7 1)))
 (or $x2648 $x2245 $x1037 $x815 $x3522 $x1842 $x2776 $x2640 $x227)))))))))))
(assert
 (let (($x535 (= cell_7_7 9)))
 (let (($x2311 (= cell_7_7 8)))
 (let (($x1059 (= cell_7_7 7)))
 (let (($x1107 (= cell_7_7 6)))
 (let (($x3348 (= cell_7_7 5)))
 (let (($x3570 (= cell_7_7 4)))
 (let (($x3792 (= cell_7_7 3)))
 (let (($x2509 (= cell_7_7 2)))
 (let (($x189 (= cell_7_7 1)))
 (or $x189 $x2509 $x3792 $x3570 $x3348 $x1107 $x1059 $x2311 $x535)))))))))))
(assert
 (let (($x903 (= cell_8_7 2)))
 (or (= cell_8_7 1) $x903 (= cell_8_7 3) (= cell_8_7 4) (= cell_8_7 5) (= cell_8_7 6) (= cell_8_7 7) (= cell_8_7 8) (= cell_8_7 9))))
(assert
 (let (($x3172 (= cell_9_7 1)))
 (or $x3172 (= cell_9_7 2) (= cell_9_7 3) (= cell_9_7 4) (= cell_9_7 5) (= cell_9_7 6) (= cell_9_7 7) (= cell_9_7 8) (= cell_9_7 9))))
(assert
 (let (($x2070 (= cell_1_8 9)))
 (let (($x2819 (= cell_1_8 8)))
 (let (($x2246 (= cell_1_8 7)))
 (let (($x115 (= cell_1_8 6)))
 (let (($x2244 (= cell_1_8 5)))
 (let (($x2638 (= cell_1_8 4)))
 (let (($x2757 (= cell_1_8 3)))
 (let (($x729 (= cell_1_8 2)))
 (let (($x3440 (= cell_1_8 1)))
 (or $x3440 $x729 $x2757 $x2638 $x2244 $x115 $x2246 $x2819 $x2070)))))))))))
(assert
 (let (($x3207 (= cell_2_8 2)))
 (or (= cell_2_8 1) $x3207 (= cell_2_8 3) (= cell_2_8 4) (= cell_2_8 5) (= cell_2_8 6) (= cell_2_8 7) (= cell_2_8 8) (= cell_2_8 9))))
(assert
 (let (($x2993 (= cell_3_8 9)))
 (let (($x1942 (= cell_3_8 8)))
 (let (($x1242 (= cell_3_8 7)))
 (let (($x1409 (= cell_3_8 6)))
 (let (($x2189 (= cell_3_8 5)))
 (let (($x1882 (= cell_3_8 4)))
 (let (($x3153 (= cell_3_8 3)))
 (let (($x2465 (= cell_3_8 2)))
 (let (($x1356 (= cell_3_8 1)))
 (or $x1356 $x2465 $x3153 $x1882 $x2189 $x1409 $x1242 $x1942 $x2993)))))))))))
(assert
 (let (($x305 (= cell_4_8 9)))
 (let (($x3107 (= cell_4_8 8)))
 (let (($x3626 (= cell_4_8 7)))
 (let (($x2359 (= cell_4_8 6)))
 (let (($x359 (= cell_4_8 5)))
 (let (($x1228 (= cell_4_8 4)))
 (let (($x18 (= cell_4_8 3)))
 (let (($x398 (= cell_4_8 2)))
 (let (($x785 (= cell_4_8 1)))
 (or $x785 $x398 $x18 $x1228 $x359 $x2359 $x3626 $x3107 $x305)))))))))))
(assert
 (let (($x852 (= cell_5_8 1)))
 (or $x852 (= cell_5_8 2) (= cell_5_8 3) (= cell_5_8 4) (= cell_5_8 5) (= cell_5_8 6) (= cell_5_8 7) (= cell_5_8 8) (= cell_5_8 9))))
(assert
 (let (($x2028 (= cell_6_8 9)))
 (let (($x2429 (= cell_6_8 8)))
 (let (($x349 (= cell_6_8 7)))
 (let (($x360 (= cell_6_8 6)))
 (let (($x3490 (= cell_6_8 5)))
 (let (($x2938 (= cell_6_8 4)))
 (let (($x1938 (= cell_6_8 3)))
 (let (($x105 (= cell_6_8 2)))
 (let (($x3060 (= cell_6_8 1)))
 (or $x3060 $x105 $x1938 $x2938 $x3490 $x360 $x349 $x2429 $x2028)))))))))))
(assert
 (let (($x3412 (= cell_7_8 9)))
 (let (($x940 (= cell_7_8 8)))
 (let (($x906 (= cell_7_8 7)))
 (let (($x1961 (= cell_7_8 6)))
 (let (($x1232 (= cell_7_8 5)))
 (let (($x1985 (= cell_7_8 4)))
 (let (($x1755 (= cell_7_8 3)))
 (let (($x2296 (= cell_7_8 2)))
 (let (($x705 (= cell_7_8 1)))
 (or $x705 $x2296 $x1755 $x1985 $x1232 $x1961 $x906 $x940 $x3412)))))))))))
(assert
 (let (($x2723 (= cell_8_8 9)))
 (let (($x3845 (= cell_8_8 8)))
 (let (($x3840 (= cell_8_8 7)))
 (let (($x3184 (= cell_8_8 6)))
 (let (($x60 (= cell_8_8 5)))
 (let (($x317 (= cell_8_8 4)))
 (let (($x1529 (= cell_8_8 3)))
 (let (($x409 (= cell_8_8 2)))
 (let (($x2402 (= cell_8_8 1)))
 (or $x2402 $x409 $x1529 $x317 $x60 $x3184 $x3840 $x3845 $x2723)))))))))))
(assert
 (let (($x1044 (= cell_9_8 2)))
 (let (($x2905 (= cell_9_8 1)))
 (or $x2905 $x1044 (= cell_9_8 3) (= cell_9_8 4) (= cell_9_8 5) (= cell_9_8 6) (= cell_9_8 7) (= cell_9_8 8) (= cell_9_8 9)))))
(assert
 (let (($x1354 (= cell_1_9 9)))
 (let (($x1659 (= cell_1_9 8)))
 (let (($x3467 (= cell_1_9 7)))
 (let (($x1511 (= cell_1_9 6)))
 (let (($x1599 (= cell_1_9 5)))
 (let (($x3485 (= cell_1_9 4)))
 (let (($x1839 (= cell_1_9 3)))
 (let (($x3658 (= cell_1_9 2)))
 (let (($x2814 (= cell_1_9 1)))
 (or $x2814 $x3658 $x1839 $x3485 $x1599 $x1511 $x3467 $x1659 $x1354)))))))))))
(assert
 (let (($x1291 (= cell_2_9 9)))
 (let (($x2261 (= cell_2_9 8)))
 (let (($x1468 (= cell_2_9 7)))
 (let (($x784 (= cell_2_9 6)))
 (let (($x400 (= cell_2_9 5)))
 (let (($x1752 (= cell_2_9 4)))
 (let (($x79 (= cell_2_9 3)))
 (let (($x2635 (= cell_2_9 2)))
 (let (($x2856 (= cell_2_9 1)))
 (or $x2856 $x2635 $x79 $x1752 $x400 $x784 $x1468 $x2261 $x1291)))))))))))
(assert
 (let (($x2528 (= cell_3_9 1)))
 (or $x2528 (= cell_3_9 2) (= cell_3_9 3) (= cell_3_9 4) (= cell_3_9 5) (= cell_3_9 6) (= cell_3_9 7) (= cell_3_9 8) (= cell_3_9 9))))
(assert
 (let (($x206 (= cell_4_9 9)))
 (let (($x1339 (= cell_4_9 8)))
 (let (($x2544 (= cell_4_9 7)))
 (let (($x3239 (= cell_4_9 6)))
 (let (($x2007 (= cell_4_9 5)))
 (let (($x2169 (= cell_4_9 4)))
 (let (($x2892 (= cell_4_9 3)))
 (let (($x969 (= cell_4_9 2)))
 (let (($x1766 (= cell_4_9 1)))
 (or $x1766 $x969 $x2892 $x2169 $x2007 $x3239 $x2544 $x1339 $x206)))))))))))
(assert
 (let (($x2327 (= cell_5_9 9)))
 (let (($x3245 (= cell_5_9 8)))
 (let (($x899 (= cell_5_9 7)))
 (let (($x83 (= cell_5_9 6)))
 (let (($x496 (= cell_5_9 5)))
 (let (($x1018 (= cell_5_9 4)))
 (let (($x3203 (= cell_5_9 3)))
 (let (($x1269 (= cell_5_9 2)))
 (let (($x1822 (= cell_5_9 1)))
 (or $x1822 $x1269 $x3203 $x1018 $x496 $x83 $x899 $x3245 $x2327)))))))))))
(assert
 (let (($x791 (= cell_6_9 2)))
 (or (= cell_6_9 1) $x791 (= cell_6_9 3) (= cell_6_9 4) (= cell_6_9 5) (= cell_6_9 6) (= cell_6_9 7) (= cell_6_9 8) (= cell_6_9 9))))
(assert
 (let (($x3332 (= cell_7_9 9)))
 (let (($x2144 (= cell_7_9 8)))
 (let (($x469 (= cell_7_9 7)))
 (let (($x2286 (= cell_7_9 6)))
 (let (($x789 (= cell_7_9 5)))
 (let (($x244 (= cell_7_9 4)))
 (let (($x1478 (= cell_7_9 3)))
 (let (($x367 (= cell_7_9 2)))
 (let (($x3424 (= cell_7_9 1)))
 (or $x3424 $x367 $x1478 $x244 $x789 $x2286 $x469 $x2144 $x3332)))))))))))
(assert
 (let (($x111 (= cell_8_9 9)))
 (let (($x3227 (= cell_8_9 8)))
 (let (($x3682 (= cell_8_9 7)))
 (let (($x917 (= cell_8_9 6)))
 (let (($x2128 (= cell_8_9 5)))
 (let (($x1553 (= cell_8_9 4)))
 (let (($x3571 (= cell_8_9 3)))
 (let (($x1503 (= cell_8_9 2)))
 (let (($x1159 (= cell_8_9 1)))
 (or $x1159 $x1503 $x3571 $x1553 $x2128 $x917 $x3682 $x3227 $x111)))))))))))
(assert
 (let (($x958 (= cell_9_9 2)))
 (let (($x3357 (= cell_9_9 1)))
 (or $x3357 $x958 (= cell_9_9 3) (= cell_9_9 4) (= cell_9_9 5) (= cell_9_9 6) (= cell_9_9 7) (= cell_9_9 8) (= cell_9_9 9)))))
(assert
 (and (distinct cell_1_1 cell_1_2 cell_1_3 cell_1_4 cell_1_5 cell_1_6 cell_1_7 cell_1_8 cell_1_9) true))
(assert
 (and (distinct cell_2_1 cell_2_2 cell_2_3 cell_2_4 cell_2_5 cell_2_6 cell_2_7 cell_2_8 cell_2_9) true))
(assert
 (and (distinct cell_3_1 cell_3_2 cell_3_3 cell_3_4 cell_3_5 cell_3_6 cell_3_7 cell_3_8 cell_3_9) true))
(assert
 (and (distinct cell_4_1 cell_4_2 cell_4_3 cell_4_4 cell_4_5 cell_4_6 cell_4_7 cell_4_8 cell_4_9) true))
(assert
 (and (distinct cell_5_1 cell_5_2 cell_5_3 cell_5_4 cell_5_5 cell_5_6 cell_5_7 cell_5_8 cell_5_9) true))
(assert
 (and (distinct cell_6_1 cell_6_2 cell_6_3 cell_6_4 cell_6_5 cell_6_6 cell_6_7 cell_6_8 cell_6_9) true))
(assert
 (and (distinct cell_7_1 cell_7_2 cell_7_3 cell_7_4 cell_7_5 cell_7_6 cell_7_7 cell_7_8 cell_7_9) true))
(assert
 (and (distinct cell_8_1 cell_8_2 cell_8_3 cell_8_4 cell_8_5 cell_8_6 cell_8_7 cell_8_8 cell_8_9) true))
(assert
 (and (distinct cell_9_1 cell_9_2 cell_9_3 cell_9_4 cell_9_5 cell_9_6 cell_9_7 cell_9_8 cell_9_9) true))
(assert
 (and (distinct cell_1_1 cell_2_1 cell_3_1 cell_4_1 cell_5_1 cell_6_1 cell_7_1 cell_8_1 cell_9_1) true))
(assert
 (and (distinct cell_1_2 cell_2_2 cell_3_2 cell_4_2 cell_5_2 cell_6_2 cell_7_2 cell_8_2 cell_9_2) true))
(assert
 (and (distinct cell_1_3 cell_2_3 cell_3_3 cell_4_3 cell_5_3 cell_6_3 cell_7_3 cell_8_3 cell_9_3) true))
(assert
 (and (distinct cell_1_4 cell_2_4 cell_3_4 cell_4_4 cell_5_4 cell_6_4 cell_7_4 cell_8_4 cell_9_4) true))
(assert
 (and (distinct cell_1_5 cell_2_5 cell_3_5 cell_4_5 cell_5_5 cell_6_5 cell_7_5 cell_8_5 cell_9_5) true))
(assert
 (and (distinct cell_1_6 cell_2_6 cell_3_6 cell_4_6 cell_5_6 cell_6_6 cell_7_6 cell_8_6 cell_9_6) true))
(assert
 (and (distinct cell_1_7 cell_2_7 cell_3_7 cell_4_7 cell_5_7 cell_6_7 cell_7_7 cell_8_7 cell_9_7) true))
(assert
 (and (distinct cell_1_8 cell_2_8 cell_3_8 cell_4_8 cell_5_8 cell_6_8 cell_7_8 cell_8_8 cell_9_8) true))
(assert
 (and (distinct cell_1_9 cell_2_9 cell_3_9 cell_4_9 cell_5_9 cell_6_9 cell_7_9 cell_8_9 cell_9_9) true))
(assert
 (and (distinct cell_1_1 cell_1_2 cell_1_3 cell_2_1 cell_2_2 cell_2_3 cell_3_1 cell_3_2 cell_3_3) true))
(assert
 (and (distinct cell_1_4 cell_1_5 cell_1_6 cell_2_4 cell_2_5 cell_2_6 cell_3_4 cell_3_5 cell_3_6) true))
(assert
 (and (distinct cell_1_7 cell_1_8 cell_1_9 cell_2_7 cell_2_8 cell_2_9 cell_3_7 cell_3_8 cell_3_9) true))
(assert
 (and (distinct cell_4_1 cell_4_2 cell_4_3 cell_5_1 cell_5_2 cell_5_3 cell_6_1 cell_6_2 cell_6_3) true))
(assert
 (and (distinct cell_4_4 cell_4_5 cell_4_6 cell_5_4 cell_5_5 cell_5_6 cell_6_4 cell_6_5 cell_6_6) true))
(assert
 (and (distinct cell_4_7 cell_4_8 cell_4_9 cell_5_7 cell_5_8 cell_5_9 cell_6_7 cell_6_8 cell_6_9) true))
(assert
 (and (distinct cell_7_1 cell_7_2 cell_7_3 cell_8_1 cell_8_2 cell_8_3 cell_9_1 cell_9_2 cell_9_3) true))
(assert
 (and (distinct cell_7_4 cell_7_5 cell_7_6 cell_8_4 cell_8_5 cell_8_6 cell_9_4 cell_9_5 cell_9_6) true))
(assert
 (and (distinct cell_7_7 cell_7_8 cell_7_9 cell_8_7 cell_8_8 cell_8_9 cell_9_7 cell_9_8 cell_9_9) true))
(assert
 (let (($x547 (and (distinct cell_5_9 cell_6_8 cell_7_7 cell_8_6) true)))
 (let (($x2949 (and (distinct cell_2_9 cell_3_8 cell_4_7 cell_5_6 cell_6_5 cell_7_4 cell_8_3 cell_9_2) true)))
 (let (($x828 (and (distinct cell_1_8 cell_2_7 cell_3_6 cell_4_5 cell_5_4 cell_6_3 cell_7_2 cell_8_1) true)))
 (let (($x2193 (and (distinct cell_1_5 cell_2_4 cell_3_3 cell_4_2) true)))
 (let (($x968 (and (distinct cell_5_1 cell_6_2 cell_7_3 cell_8_4) true)))
 (let (($x2730 (and (distinct cell_2_1 cell_3_2 cell_4_3 cell_5_4 cell_6_5 cell_7_6 cell_8_7 cell_9_8) true)))
 (let (($x2609 (and (distinct cell_1_2 cell_2_3 cell_3_4 cell_4_5 cell_5_6 cell_6_7 cell_7_8 cell_8_9) true)))
 (let (($x1172 (and (distinct cell_1_5 cell_2_6 cell_3_7 cell_4_8) true)))
 (and $x1172 $x2609 $x2730 $x968 $x2193 $x828 $x2949 $x547))))))))))
(assert
 (= cell_9_5 2))
(check-sat)
